problems/GracefulDoubleWheelGraphs/GracefulDoubleWheelGraphs-models/noch/O2/lingeling/model-n04-solution000001.eprime-solution
language ESSENCE' 1.0

letting colouring_Function1D be [2, 11, 1, 8, 5, 3, 0, 4, 16; int(0..8)]
letting edgeID_Function1D be [9, 10, 7, 6, 2, 3, 4, 1, 14, 5, 15, 8, 11, 13, 16, 12; int(0..15)]
