problems/GracefulDoubleWheelGraphs/GracefulDoubleWheelGraphs-models/noch/O2/lingeling/model-n04-solution000001.solution
language Essence 1.3

letting colouring be function(0 --> 2, 1 --> 11, 2 --> 1, 3 --> 8, 4 --> 5, 5 --> 3, 6 --> 0, 7 --> 4, 8 --> 16)
letting edgeID be
        function(0 --> 9, 1 --> 10, 2 --> 7, 3 --> 6, 4 --> 2, 5 --> 3, 6 --> 4, 7 --> 1, 8 --> 14, 9 --> 5, 10 --> 15,
                 11 --> 8, 12 --> 11, 13 --> 13, 14 --> 16, 15 --> 12)
